0000000000000000
0000000000000000
0000000000000000
0000000000000000
0000000000000000
0000000000000000
0001111110000000
0001111110000000
0000000010000000
0000000010000000
0000000010000000
0000000010000000
0000000010000000
0001111111000000
0001111111000000
0000000000000000
